CPXPARAM_Read_DataCheck                          1
CPXPARAM_TimeLimit                               1800
Found incumbent of value 158.000000 after 0.00 sec. (0.02 ticks)
Tried aggregator 1 time.
MIP Presolve eliminated 9 rows and 1 columns.
MIP Presolve modified 4 coefficients.
Reduced MIP has 392 rows, 200 columns, and 788 nonzeros.
Reduced MIP has 200 binaries, 0 generals, 0 SOSs, and 0 indicators.
Presolve time = 0.00 sec. (0.50 ticks)
Probing time = 0.00 sec. (0.07 ticks)
Tried aggregator 1 time.
Reduced MIP has 392 rows, 200 columns, and 788 nonzeros.
Reduced MIP has 200 binaries, 0 generals, 0 SOSs, and 0 indicators.
Presolve time = 0.00 sec. (0.59 ticks)
Probing time = 0.00 sec. (0.07 ticks)
Clique table members: 392.
MIP emphasis: balance optimality and feasibility.
MIP search method: dynamic search.
Parallel mode: deterministic, using up to 4 threads.
Root relaxation solution time = 0.00 sec. (1.42 ticks)

        Nodes                                         Cuts/
   Node  Left     Objective  IInf  Best Integer    Best Bound    ItCnt     Gap

*     0+    0                          158.0000        0.0000           100.00%
*     0+    0                          133.0000        0.0000           100.00%
      0     0      102.0000   196      133.0000      102.0000      364   23.31%
*     0+    0                          129.0000      102.0000            20.93%
      0     0      106.2500   195      129.0000      Cuts: 73      505   17.64%
      0     0      107.9444   197      129.0000     Cuts: 102      628   16.32%
      0     0      109.5000   192      129.0000  ZeroHalf: 61      762   15.12%
      0     0      109.8333   195      129.0000  ZeroHalf: 73      888   14.86%
      0     0      110.5122   200      129.0000      Cuts: 56     1055   14.33%
*     0+    0                          122.0000      110.5122             9.42%
      0     0      111.0911   200      122.0000  ZeroHalf: 39     1174    8.94%
      0     0      111.5829   198      122.0000  ZeroHalf: 32     1276    8.54%
      0     0      111.7520   199      122.0000  ZeroHalf: 22     1362    8.40%
      0     0      112.0752   200      122.0000  ZeroHalf: 25     1493    8.14%
      0     0      112.1520   200      122.0000  ZeroHalf: 19     1547    8.07%
      0     0      112.2562   200      122.0000  ZeroHalf: 11     1615    7.99%
      0     0      112.2885   200      122.0000  ZeroHalf: 13     1655    7.96%
      0     0      112.3880   200      122.0000   ZeroHalf: 8     1729    7.88%
      0     0      112.4482   199      122.0000      Cuts: 20     1784    7.83%
      0     0      112.9178   200      122.0000      Cuts: 28     1939    7.44%
      0     0      113.1282   200      122.0000  ZeroHalf: 15     2017    7.27%
      0     0      113.3443   200      122.0000  ZeroHalf: 10     2099    7.09%
      0     0      113.4982   200      122.0000   ZeroHalf: 7     2164    6.97%
      0     0      113.6872   200      122.0000      Cuts: 13     2257    6.81%
      0     0      113.7192   200      122.0000       Cuts: 6     2305    6.79%
      0     0      113.7474   200      122.0000   ZeroHalf: 3     2361    6.76%
      0     0      113.7792   199      122.0000   ZeroHalf: 8     2403    6.74%
      0     0      113.7810   199      122.0000   ZeroHalf: 1     2414    6.74%
      0     2      113.7810   199      122.0000      113.7810     2414    6.74%
Elapsed time = 2.24 sec. (542.56 ticks, tree = 0.02 MB, solutions = 4)
    259   187      121.0000   124      122.0000      114.1577    22341    6.43%
*   433+  299                          121.0000      114.8304             5.10%
    531   352      116.7628   173      121.0000      114.9211    46306    5.02%
    850   600      119.8849   170      121.0000      115.2108    76044    4.78%
   1227   880      119.5000   157      121.0000      115.4545   107663    4.58%
   1619  1081      116.9248   178      121.0000      115.7150   128706    4.37%
   2067  1467      119.1220   170      121.0000      115.9338   156667    4.19%
*  2283  1574      integral     0      120.0000      116.0269   164568    3.31%
   2449  1339      117.4170   174      120.0000      116.0661   174605    3.28%
   2455  1406      114.2838   200      120.0000      116.0819   182599    3.27%
   2475   655      117.6293   175      120.0000      116.0819   184594    3.27%
   3504   641      118.6139   176      120.0000      116.4716   251230    2.94%
Elapsed time = 10.42 sec. (4010.15 ticks, tree = 1.55 MB, solutions = 6)
*  4251+  993                          119.0000      116.9482             1.72%
   4583   351        cutoff            119.0000      117.2772   322658    1.45%

Zero-half cuts applied:  214
Lift and project cuts applied:  43
Gomory fractional cuts applied:  5

Root node processing (before b&c):
  Real time             =    2.24 sec. (542.21 ticks)
Parallel b&c, 4 threads:
  Real time             =   10.63 sec. (4543.40 ticks)
  Sync time (average)   =    0.34 sec.
  Wait time (average)   =    0.00 sec.
                          ------------
Total (root+branch&cut) =   12.87 sec. (5085.61 ticks)
119.0
0.0